qbf_easy_train/easy_3452_UNSAT.qdimacs
p cnf 32 87
a 18 19 30 0
e 1 2 3 4 5 6 7 8 9 10 11 12 13 14 15 16 17 20 21 22 23 24 25 26 27 28 29 31 32 0
3 -4 0
-3 -4 0
-5 -2 0
-5 -4 0
2 4 5 0
-8 6 0
-8 7 0
-6 -7 8 0
-8 -2 -9 0
8 2 -9 0
-8 2 9 0
8 -2 9 0
-5 9 -10 0
5 -9 -10 0
-5 -9 10 0
5 9 10 0
-11 -1 0
-11 -10 0
1 10 11 0
-13 -12 0
-13 12 0
-14 -7 0
-14 -8 0
7 8 14 0
15 4 0
15 -14 0
-4 14 -15 0
-16 -13 0
-16 -15 0
13 15 16 0
9 -4 -17 0
-9 4 -17 0
9 4 17 0
-9 -4 17 0
-2 18 -19 0
2 -18 -19 0
-2 -18 19 0
2 18 19 0
20 -19 0
20 -10 0
19 10 -20 0
-17 -20 -21 0
17 20 -21 0
-17 20 21 0
17 -20 21 0
22 4 0
22 -14 0
-4 14 -22 0
-24 7 0
-24 18 0
-7 -18 24 0
-23 -24 -25 0
23 24 -25 0
-23 24 25 0
23 -24 25 0
26 25 0
26 2 0
-25 -2 -26 0
-27 -5 0
-27 -24 0
5 24 27 0
-26 -27 -28 0
26 27 -28 0
-26 27 28 0
26 -27 28 0
29 22 0
29 28 0
-22 -28 -29 0
-30 21 0
-30 29 0
-21 -29 30 0
-16 30 -31 0
16 -30 -31 0
-16 -30 31 0
16 30 31 0
32 11 0
32 -31 0
-11 31 -32 0
1 21 29 32 0
-9 1 16 -2 20 6 31 0
-32 31 5 6 0
-20 4 -9 23 25 0
14 -18 -26 -15 0
-22 15 32 -30 26 25 0
24 2 9 16 1 0
-29 17 13 -25 0
32 0
