sat_easy_train/easy_3452_UNSAT.dimacs
p cnf 136 464
-3 -1 0
-3 -2 0
1 2 3 0
-3 4 -5 0
3 -4 -5 0
-3 -4 5 0
3 4 5 0
8 7 0
8 -1 0
-7 1 -8 0
9 10 -11 0
-9 -10 -11 0
9 -10 11 0
-9 10 11 0
-12 11 0
-12 3 0
-11 -3 12 0
12 5 -13 0
-12 -5 -13 0
12 -5 13 0
-12 5 13 0
-14 8 0
-14 -13 0
-8 13 14 0
-6 -14 -15 0
6 14 -15 0
-6 14 15 0
6 -14 15 0
-17 -10 0
-17 16 0
10 -16 17 0
2 -17 -18 0
-2 17 -18 0
2 17 18 0
-2 -17 18 0
8 18 -19 0
-8 -18 -19 0
8 -18 19 0
-8 18 19 0
-15 19 -20 0
15 -19 -20 0
-15 -19 20 0
15 19 20 0
-21 5 0
-21 20 0
-5 -20 21 0
-22 -8 0
-22 16 0
8 -16 22 0
-22 -7 -23 0
22 7 -23 0
-22 7 23 0
22 -7 23 0
-24 -6 0
-24 5 0
6 -5 24 0
-26 3 0
-26 -25 0
-3 25 26 0
27 -26 0
27 -22 0
26 22 -27 0
28 27 0
28 -3 0
-27 3 -28 0
-29 -24 0
-29 28 0
24 -28 29 0
30 23 0
30 29 0
-23 -29 -30 0
31 -21 0
31 -30 0
21 30 -31 0
33 32 0
33 -6 0
-32 6 -33 0
34 3 0
34 10 0
-3 -10 -34 0
24 -34 -35 0
-24 34 -35 0
24 34 35 0
-24 -34 35 0
36 -33 0
36 35 0
33 -35 -36 0
26 12 -37 0
-26 -12 -37 0
26 -12 37 0
-26 12 37 0
-16 38 -39 0
16 -38 -39 0
-16 -38 39 0
16 38 39 0
-40 -39 0
-40 -23 0
39 23 40 0
41 37 0
41 -40 0
-37 40 -41 0
-42 -25 0
-42 37 0
25 -37 42 0
42 16 -43 0
-42 -16 -43 0
42 -16 43 0
-42 16 43 0
-44 -26 0
-44 43 0
26 -43 44 0
-45 -44 0
-45 22 0
44 -22 45 0
4 -46 -47 0
-4 46 -47 0
4 46 47 0
-4 -46 47 0
48 -19 0
48 -47 0
19 47 -48 0
-49 -45 0
-49 -48 0
45 48 49 0
50 -10 0
50 6 0
10 -6 -50 0
51 1 0
51 50 0
-1 -50 -51 0
52 1 0
52 -39 0
-1 39 -52 0
53 -51 0
53 -52 0
51 52 -53 0
-54 7 0
-54 -9 0
-7 9 54 0
55 -47 0
55 -54 0
47 54 -55 0
56 53 0
56 -55 0
-53 55 -56 0
57 -16 0
57 56 0
16 -56 -57 0
-58 -57 0
-58 2 0
57 -2 58 0
-49 -58 -59 0
49 58 -59 0
-49 58 59 0
49 -58 59 0
-60 41 0
-60 59 0
-41 -59 60 0
-61 -10 0
-61 13 0
10 -13 61 0
-62 61 0
-62 -8 0
-61 8 62 0
-63 -60 0
-63 62 0
60 -62 63 0
64 -7 0
64 44 0
7 -44 -64 0
-65 -63 0
-65 64 0
63 -64 65 0
-36 65 -66 0
36 -65 -66 0
-36 -65 66 0
36 65 66 0
67 -31 0
67 66 0
31 -66 -67 0
-69 -18 0
-69 -68 0
18 68 69 0
-70 -17 0
-70 -48 0
17 48 70 0
-69 -70 -71 0
69 70 -71 0
-69 70 71 0
69 -70 71 0
-72 -67 0
-72 -71 0
67 71 72 0
32 34 -73 0
-32 -34 -73 0
32 -34 73 0
-32 34 73 0
74 37 0
74 7 0
-37 -7 -74 0
75 74 0
75 22 0
-74 -22 -75 0
-75 76 -77 0
75 -76 -77 0
-75 -76 77 0
75 76 77 0
73 77 -78 0
-73 -77 -78 0
73 -77 78 0
-73 77 78 0
-79 8 0
-79 10 0
-8 -10 79 0
-78 -79 -80 0
78 79 -80 0
-78 79 80 0
78 -79 80 0
-81 -32 0
-81 43 0
32 -43 81 0
-81 2 -82 0
81 -2 -82 0
-81 -2 82 0
81 2 82 0
50 32 -83 0
-50 -32 -83 0
50 -32 83 0
-50 32 83 0
-83 40 -84 0
83 -40 -84 0
-83 -40 84 0
83 40 84 0
26 85 -86 0
-26 -85 -86 0
26 -85 86 0
-26 85 86 0
-87 86 0
-87 -32 0
-86 32 87 0
87 17 -88 0
-87 -17 -88 0
87 -17 88 0
-87 17 88 0
84 -88 -89 0
-84 88 -89 0
84 88 89 0
-84 -88 89 0
-82 89 -90 0
82 -89 -90 0
-82 -89 90 0
82 89 90 0
-91 -17 0
-91 -9 0
17 9 91 0
92 -91 0
92 38 0
91 -38 -92 0
93 -90 0
93 -92 0
90 92 -93 0
-94 80 0
-94 -93 0
-80 93 94 0
-72 94 -95 0
72 -94 -95 0
-72 -94 95 0
72 94 95 0
96 24 0
96 -87 0
-24 87 -96 0
97 96 0
97 -9 0
-96 9 -97 0
-86 98 -99 0
86 -98 -99 0
-86 -98 99 0
86 98 99 0
-100 24 0
-100 -11 0
-24 11 100 0
101 -12 0
101 -87 0
12 87 -101 0
102 -101 0
102 -20 0
101 20 -102 0
-103 102 0
-103 74 0
-102 -74 103 0
-104 -38 0
-104 -103 0
38 103 104 0
10 86 -105 0
-10 -86 -105 0
10 -86 105 0
-10 86 105 0
-106 48 0
-106 -105 0
-48 105 106 0
107 -104 0
107 106 0
104 -106 -107 0
108 100 0
108 -107 0
-100 107 -108 0
109 -99 0
109 -108 0
99 108 -109 0
-110 97 0
-110 -109 0
-97 109 110 0
74 4 -111 0
-74 -4 -111 0
74 -4 111 0
-74 4 111 0
-112 111 0
-112 20 0
-111 -20 112 0
-113 13 0
-113 8 0
-13 -8 113 0
-114 86 0
-114 44 0
-86 -44 114 0
115 -114 0
115 -22 0
114 22 -115 0
-113 -115 -116 0
113 115 -116 0
-113 115 116 0
113 -115 116 0
117 112 0
117 116 0
-112 -116 -117 0
-118 -34 0
-118 26 0
34 -26 118 0
-119 -12 0
-119 43 0
12 -43 119 0
56 -37 -120 0
-56 37 -120 0
56 37 120 0
-56 -37 120 0
119 -120 -121 0
-119 120 -121 0
119 120 121 0
-119 -120 121 0
2 75 -122 0
-2 -75 -122 0
2 -75 122 0
-2 75 122 0
98 87 -123 0
-98 -87 -123 0
98 -87 123 0
-98 87 123 0
-98 -38 -124 0
98 38 -124 0
-98 38 124 0
98 -38 124 0
-123 124 -125 0
123 -124 -125 0
-123 -124 125 0
123 124 125 0
122 125 -126 0
-122 -125 -126 0
122 -125 126 0
-122 125 126 0
127 85 0
127 11 0
-85 -11 -127 0
-128 -127 0
-128 50 0
127 -50 128 0
9 101 -129 0
-9 -101 -129 0
9 -101 129 0
-9 101 129 0
-130 -128 0
-130 -129 0
128 129 130 0
131 126 0
131 130 0
-126 -130 -131 0
132 121 0
132 -131 0
-121 131 -132 0
-118 -132 -133 0
118 132 -133 0
-118 132 133 0
118 -132 133 0
-117 133 -134 0
117 -133 -134 0
-117 -133 134 0
117 133 134 0
-110 -134 -135 0
110 134 -135 0
-110 134 135 0
110 -134 135 0
-136 95 0
-136 -135 0
-95 135 136 0
78 61 40 20 -90 0
26 -96 -28 0
46 49 -86 0
-10 -48 99 -133 38 -39 0
-19 -4 85 0
-122 -105 -133 0
128 -120 0
-102 123 33 51 -44 15 0
79 37 0
-127 81 45 -93 -119 112 0
-135 -113 0
-76 -127 125 -4 0
63 127 -25 0
-29 -43 0
-57 -131 30 121 11 52 0
3 -120 67 -113 36 0
-93 -101 48 20 -59 115 0
64 -74 -105 0
-45 67 -31 -116 27 -104 0
7 116 -131 -82 0
-125 -34 -42 33 -113 -37 0
-37 69 0
56 95 -119 -120 0
-50 71 -128 53 0
44 91 -48 0
-92 -94 0
50 -59 0
-87 100 -75 117 29 -96 0
82 -87 0
127 -76 -130 0
-105 30 -126 0
-120 110 0
111 -1 116 0
-47 -62 3 0
118 133 0
70 -88 -76 -45 90 0
-69 16 84 0
34 13 32 93 -124 -115 0
37 -28 -86 0
47 130 -111 0
-28 -55 22 10 -89 0
109 -95 -72 -45 67 86 0
41 -37 10 -48 70 -58 0
52 45 27 -98 135 69 0
-25 26 0
-2 -96 80 -25 30 0
-14 -23 72 81 0
22 -9 69 -124 0
-100 57 0
35 96 0
61 -5 89 57 -56 0
-93 -50 71 53 -45 0
102 -5 134 -128 -61 0
-13 -72 102 -130 -91 0
104 71 133 0
-96 54 -136 -115 0
129 117 -84 0
128 54 -23 112 -86 51 0
40 -55 -41 93 -123 0
82 -39 101 95 0
136 0
